TERM = { '.', 'in_1', 'local_0', 'local_1', 'in_2', 's(1)', 's(0)', 'in_0'};
null = '.';
s = 8;
n = 9;
ndeps = 1;
max_registers_sz = 5;
NR = 2;
registers = [|'local_0', 's(0)', |'local_1', 'in_0'|];
dependencies = [|'i32.load8_u_6', 'call[function_index(0)]_7'|];
GET_ENUM = { GET1, GET2, GET3, GET4, GET5, GET6, GET7};
SET_ENUM = { SET1, SET2, SET3, SET4, SET5, SET6, SET7};
TEE_ENUM = { TEE1, TEE2, TEE3, TEE4, TEE5, TEE6, TEE7};
N = 3;
OP = { 'call[function_index(0)]_7', 'i32.sub_0', 'i32.load8_u_6' };
in_ops = [2, 2, 1 ];
out_ops = [0, 1, 1 ];
in1 = ['s(1)', 'in_0', 's(0)' ];
in2 = ['in_2', 'in_1', '.' ];
in3 = ['.', '.', '.' ];
out1 = ['.', 's(0)', 's(1)' ];
out2 = ['.', '.', '.' ];
out3 = ['.', '.', '.' ];
comm = [false, false, false ];
gas = [1, 1, 1 ];
sz = [1, 1, 1 ];
stor = [true, false, false ];
lb = [ 1, 1, 1 ];
ub = [ 8, 8, 8 ];
startstack = [ 'in_0', 'in_1', 'in_2', null, null, null, null, null, null ];
endstack = [ null, null, null, null, null, null, null, null, null ];
